Route #1: 49 38 46 56 69 65 35 26 75 62 
Route #2: 27 59 37 2 18 48 14 
Route #3: 66 67 50 45 22 4 32 58 
Route #4: 13 44 30 78 68 61 60 3 
Route #5: 28 79 52 63 1 
Route #6: 36 39 16 43 8 34 11 7 
Route #7: 51 77 64 33 55 47 19 57 20 12 
Route #8: 53 70 76 72 54 9 15 41 25 31 29 
Route #9: 17 5 23 71 10 21 40 
Route #10: 73 42 74 6 24 
cost 2144.1
